p cnf 148 550
44 67 0
39 81 0
34 70 0
50 51 58 0
48 59 95 0
47 69 72 83 0
28 68 86 87 91 0
65 94 0
23 53 76 0
57 88 0
40 43 46 97 0
38 80 84 90 0
32 36 115 117 0
31 121 0
30 73 139 0
49 66 0
77 78 0
26 27 63 92 0
22 24 128 0
19 54 56 0
98 99 0
41 62 101 0
71 82 0
74 103 0
107 109 110 0
100 112 0
85 113 114 0
35 93 116 118 0
119 120 122 0
123 146 0
125 126 0
64 127 0
20 25 129 0
21 55 0
-67 -132 0
-81 -132 0
-106 -132 0
-67 -81 0
-67 -106 0
-81 -106 0
-48 -111 0
-47 -111 0
-23 -111 0
-47 -48 0
-23 -48 0
-23 -47 0
-88 -97 0
-38 -88 0
-88 -104 0
-38 -97 0
-97 -104 0
-38 -104 0
-61 -125 0
-125 -130 0
-21 -125 0
-61 -130 0
-21 -61 0
-21 -130 0
-111 -132 0
-88 -132 0
-125 -132 0
-88 -111 0
-111 -125 0
-88 -125 0
-48 -67 0
-67 -97 0
-61 -67 0
-48 -97 0
-48 -61 0
-61 -97 0
-47 -81 0
-38 -81 0
-81 -130 0
-38 -47 0
-47 -130 0
-38 -130 0
-23 -106 0
-104 -106 0
-21 -106 0
-23 -104 0
-21 -23 0
-21 -104 0
-39 -89 0
-70 -89 0
-89 -105 0
-39 -70 0
-39 -105 0
-70 -105 0
-69 -124 0
-86 -124 0
-76 -124 0
-69 -86 0
-69 -76 0
-76 -86 0
-66 -135 0
-66 -92 0
-54 -66 0
-92 -135 0
-54 -135 0
-54 -92 0
-82 -133 0
-133 -134 0
-107 -133 0
-82 -134 0
-82 -107 0
-107 -134 0
-89 -124 0
-66 -89 0
-89 -133 0
-66 -124 0
-124 -133 0
-66 -133 0
-39 -69 0
-39 -135 0
-39 -82 0
-69 -135 0
-69 -82 0
-82 -135 0
-70 -86 0
-70 -92 0
-70 -134 0
-86 -92 0
-86 -134 0
-92 -134 0
-76 -105 0
-54 -105 0
-105 -107 0
-54 -76 0
-76 -107 0
-54 -107 0
-46 -80 0
-46 -139 0
-46 -108 0
-80 -139 0
-80 -108 0
-108 -139 0
-78 -131 0
-78 -128 0
-19 -78 0
-128 -131 0
-19 -131 0
-19 -128 0
-85 -102 0
-75 -102 0
-102 -123 0
-75 -85 0
-85 -123 0
-75 -123 0
-96 -136 0
-25 -96 0
-55 -96 0
-25 -136 0
-55 -136 0
-25 -55 0
-46 -78 0
-46 -102 0
-46 -96 0
-78 -102 0
-78 -96 0
-96 -102 0
-80 -131 0
-80 -85 0
-80 -136 0
-85 -131 0
-131 -136 0
-85 -136 0
-128 -139 0
-75 -139 0
-25 -139 0
-75 -128 0
-25 -128 0
-25 -75 0
-19 -108 0
-108 -123 0
-55 -108 0
-19 -123 0
-19 -55 0
-55 -123 0
-59 -87 0
-59 -94 0
-29 -59 0
-87 -94 0
-29 -87 0
-29 -94 0
-37 -101 0
-101 -138 0
-74 -101 0
-37 -138 0
-37 -74 0
-74 -138 0
-35 -45 0
-45 -119 0
-45 -140 0
-35 -119 0
-35 -140 0
-119 -140 0
-64 -79 0
-79 -141 0
-79 -129 0
-64 -141 0
-64 -129 0
-129 -141 0
-59 -101 0
-45 -59 0
-59 -79 0
-45 -101 0
-79 -101 0
-45 -79 0
-37 -87 0
-35 -87 0
-64 -87 0
-35 -37 0
-37 -64 0
-35 -64 0
-94 -138 0
-94 -119 0
-94 -141 0
-119 -138 0
-138 -141 0
-119 -141 0
-29 -74 0
-29 -140 0
-29 -129 0
-74 -140 0
-74 -129 0
-129 -140 0
-58 -72 0
-58 -91 0
-58 -142 0
-72 -91 0
-72 -142 0
-91 -142 0
-84 -143 0
-36 -143 0
-73 -143 0
-36 -84 0
-73 -84 0
-36 -73 0
-52 -137 0
-27 -52 0
-24 -52 0
-27 -137 0
-24 -137 0
-24 -27 0
-100 -113 0
-93 -100 0
-100 -144 0
-93 -113 0
-113 -144 0
-93 -144 0
-58 -143 0
-52 -58 0
-58 -100 0
-52 -143 0
-100 -143 0
-52 -100 0
-72 -84 0
-72 -137 0
-72 -113 0
-84 -137 0
-84 -113 0
-113 -137 0
-36 -91 0
-27 -91 0
-91 -93 0
-27 -36 0
-36 -93 0
-27 -93 0
-73 -142 0
-24 -142 0
-142 -144 0
-24 -73 0
-73 -144 0
-24 -144 0
-51 -95 0
-28 -51 0
-51 -53 0
-28 -95 0
-53 -95 0
-28 -53 0
-43 -145 0
-115 -145 0
-145 -147 0
-43 -115 0
-43 -147 0
-115 -147 0
-77 -148 0
-63 -148 0
-56 -148 0
-63 -77 0
-56 -77 0
-56 -63 0
-41 -99 0
-18 -99 0
-99 -109 0
-18 -41 0
-41 -109 0
-18 -109 0
-51 -145 0
-51 -148 0
-51 -99 0
-145 -148 0
-99 -145 0
-99 -148 0
-43 -95 0
-77 -95 0
-41 -95 0
-43 -77 0
-41 -43 0
-41 -77 0
-28 -115 0
-28 -63 0
-18 -28 0
-63 -115 0
-18 -115 0
-18 -63 0
-53 -147 0
-53 -56 0
-53 -109 0
-56 -147 0
-109 -147 0
-56 -109 0
-34 -44 0
-17 -44 0
-15 -44 0
-17 -34 0
-15 -34 0
-15 -17 0
-40 -117 0
-40 -121 0
-14 -40 0
-117 -121 0
-14 -117 0
-14 -121 0
-13 -62 0
-12 -62 0
-62 -110 0
-12 -13 0
-13 -110 0
-12 -110 0
-42 -116 0
-42 -120 0
-42 -146 0
-116 -120 0
-116 -146 0
-120 -146 0
-40 -44 0
-44 -62 0
-42 -44 0
-40 -62 0
-40 -42 0
-42 -62 0
-34 -117 0
-13 -34 0
-34 -116 0
-13 -117 0
-116 -117 0
-13 -116 0
-17 -121 0
-12 -17 0
-17 -120 0
-12 -121 0
-120 -121 0
-12 -120 0
-14 -15 0
-15 -110 0
-15 -146 0
-14 -110 0
-14 -146 0
-110 -146 0
-11 -50 0
-11 -83 0
-11 -68 0
-11 -65 0
-10 -11 0
-50 -83 0
-50 -68 0
-50 -65 0
-10 -50 0
-68 -83 0
-65 -83 0
-10 -83 0
-65 -68 0
-10 -68 0
-10 -65 0
-9 -57 0
-57 -90 0
-32 -57 0
-31 -57 0
-30 -57 0
-9 -90 0
-9 -32 0
-9 -31 0
-9 -30 0
-32 -90 0
-31 -90 0
-30 -90 0
-31 -32 0
-30 -32 0
-30 -31 0
-49 -60 0
-8 -49 0
-26 -49 0
-7 -49 0
-22 -49 0
-8 -60 0
-26 -60 0
-7 -60 0
-22 -60 0
-8 -26 0
-7 -8 0
-8 -22 0
-7 -26 0
-22 -26 0
-7 -22 0
-6 -98 0
-6 -71 0
-6 -33 0
-6 -16 0
-6 -103 0
-71 -98 0
-33 -98 0
-16 -98 0
-98 -103 0
-33 -71 0
-16 -71 0
-71 -103 0
-16 -33 0
-33 -103 0
-16 -103 0
-5 -112 0
-5 -114 0
-5 -118 0
-5 -122 0
-4 -5 0
-112 -114 0
-112 -118 0
-112 -122 0
-4 -112 0
-114 -118 0
-114 -122 0
-4 -114 0
-118 -122 0
-4 -118 0
-4 -122 0
-3 -126 0
-2 -126 0
-126 -127 0
-1 -126 0
-20 -126 0
-2 -3 0
-3 -127 0
-1 -3 0
-3 -20 0
-2 -127 0
-1 -2 0
-2 -20 0
-1 -127 0
-20 -127 0
-1 -20 0
-11 -57 0
-11 -49 0
-6 -11 0
-5 -11 0
-11 -126 0
-49 -57 0
-6 -57 0
-5 -57 0
-57 -126 0
-6 -49 0
-5 -49 0
-49 -126 0
-5 -6 0
-6 -126 0
-5 -126 0
-9 -50 0
-50 -60 0
-50 -98 0
-50 -112 0
-3 -50 0
-9 -60 0
-9 -98 0
-9 -112 0
-3 -9 0
-60 -98 0
-60 -112 0
-3 -60 0
-98 -112 0
-3 -98 0
-3 -112 0
-83 -90 0
-8 -83 0
-71 -83 0
-83 -114 0
-2 -83 0
-8 -90 0
-71 -90 0
-90 -114 0
-2 -90 0
-8 -71 0
-8 -114 0
-2 -8 0
-71 -114 0
-2 -71 0
-2 -114 0
-32 -68 0
-26 -68 0
-33 -68 0
-68 -118 0
-68 -127 0
-26 -32 0
-32 -33 0
-32 -118 0
-32 -127 0
-26 -33 0
-26 -118 0
-26 -127 0
-33 -118 0
-33 -127 0
-118 -127 0
-31 -65 0
-7 -65 0
-16 -65 0
-65 -122 0
-1 -65 0
-7 -31 0
-16 -31 0
-31 -122 0
-1 -31 0
-7 -16 0
-7 -122 0
-1 -7 0
-16 -122 0
-1 -16 0
-1 -122 0
-10 -30 0
-10 -22 0
-10 -103 0
-4 -10 0
-10 -20 0
-22 -30 0
-30 -103 0
-4 -30 0
-20 -30 0
-22 -103 0
-4 -22 0
-20 -22 0
-4 -103 0
-20 -103 0
-4 -20 0
